5 5
4 35 3 31 2 4 1 48 0 14
3 25 1 46 2 48 4 40 0 50
2 7 1 95 4 60 3 35 0 63
0 20 2 16 1 22 4 36 3 19
3 2 2 68 4 98 1 7 0 47
-1
0 3 5
0 2 4 5
0 1 2 3 5
0 3 5
0 1 3 4 5
-2
106 158
97 229 254
9 149 211 384
76 121
3 193 182 308

364 9
15 4 14 24 9
11 3 6 23 17
10 21 2 16 7
20 1 5 13 19
0 12 22 8 18
